instances/in_60_30_10_3.lp
#const n = 60.
#const k = 30.
#const h = 10.
tile(1,5,27).
tile(2,17,23).
tile(3,14,21).
tile(4,23,16).
tile(5,28,7).
tile(6,27,8).
tile(7,3,6).
tile(8,20,30).
tile(9,23,14).
tile(10,10,14).
tile(11,1,5).
tile(12,27,20).
tile(13,26,25).
tile(14,5,5).
tile(15,29,20).
tile(16,12,14).
tile(17,28,14).
tile(18,21,18).
tile(19,21,23).
tile(20,2,30).
tile(21,13,17).
tile(22,23,26).
tile(23,22,30).
tile(24,8,15).
tile(25,1,22).
tile(26,15,2).
tile(27,6,15).
tile(28,24,12).
tile(29,15,25).
tile(30,13,14).
tile(31,30,22).
tile(32,3,16).
tile(33,26,3).
tile(34,21,20).
tile(35,2,8).
tile(36,10,11).
tile(37,29,19).
tile(38,29,3).
tile(39,19,9).
tile(40,5,12).
tile(41,11,2).
tile(42,10,4).
tile(43,12,19).
tile(44,24,22).
tile(45,9,1).
tile(46,25,21).
tile(47,20,17).
tile(48,7,10).
tile(49,6,3).
tile(50,11,11).
tile(51,11,9).
tile(52,3,16).
tile(53,28,14).
tile(54,17,8).
tile(55,13,15).
tile(56,1,14).
tile(57,24,25).
tile(58,6,6).
tile(59,20,5).
tile(60,2,8).
