minizinc/input/in_60_30_10_3.dzn
n = 60;
k = 30;
h = 10;
tiles = array2d(1..n, 1..2,
[ 5,27
, 17,23
, 14,21
, 23,16
, 28,7
, 27,8
, 3,6
, 20,30
, 23,14
, 10,14
, 1,5
, 27,20
, 26,25
, 5,5
, 29,20
, 12,14
, 28,14
, 21,18
, 21,23
, 2,30
, 13,17
, 23,26
, 22,30
, 8,15
, 1,22
, 15,2
, 6,15
, 24,12
, 15,25
, 13,14
, 30,22
, 3,16
, 26,3
, 21,20
, 2,8
, 10,11
, 29,19
, 29,3
, 19,9
, 5,12
, 11,2
, 10,4
, 12,19
, 24,22
, 9,1
, 25,21
, 20,17
, 7,10
, 6,3
, 11,11
, 11,9
, 3,16
, 28,14
, 17,8
, 13,15
, 1,14
, 24,25
, 6,6
, 20,5
, 2,8
]);